certificates/rado_a6_c208_N35.cnf
c Rad2 upper bound instance: x1 + 6*x2 - x3 = 208, interval [1,35]
p cnf 35 258
1 3 35 0
-1 -3 -35 0
2 4 35 0
-2 -4 -35 0
3 5 35 0
-3 -5 -35 0
4 6 35 0
-4 -6 -35 0
1 5 34 0
-1 -5 -34 0
5 7 35 0
-5 -7 -35 0
2 6 34 0
-2 -6 -34 0
6 8 35 0
-6 -8 -35 0
3 7 34 0
-3 -7 -34 0
7 9 35 0
-7 -9 -35 0
4 8 34 0
-4 -8 -34 0
8 10 35 0
-8 -10 -35 0
5 9 34 0
-5 -9 -34 0
9 11 35 0
-9 -11 -35 0
6 10 34 0
-6 -10 -34 0
10 12 35 0
-10 -12 -35 0
1 11 33 0
-1 -11 -33 0
7 11 34 0
-7 -11 -34 0
11 13 35 0
-11 -13 -35 0
2 12 33 0
-2 -12 -33 0
8 12 34 0
-8 -12 -34 0
12 14 35 0
-12 -14 -35 0
3 13 33 0
-3 -13 -33 0
9 13 34 0
-9 -13 -34 0
13 15 35 0
-13 -15 -35 0
4 14 33 0
-4 -14 -33 0
10 14 34 0
-10 -14 -34 0
14 16 35 0
-14 -16 -35 0
5 15 33 0
-5 -15 -33 0
11 15 34 0
-11 -15 -34 0
15 17 35 0
-15 -17 -35 0
6 16 33 0
-6 -16 -33 0
12 16 34 0
-12 -16 -34 0
16 18 35 0
-16 -18 -35 0
1 17 32 0
-1 -17 -32 0
7 17 33 0
-7 -17 -33 0
13 17 34 0
-13 -17 -34 0
17 19 35 0
-17 -19 -35 0
2 18 32 0
-2 -18 -32 0
8 18 33 0
-8 -18 -33 0
14 18 34 0
-14 -18 -34 0
18 20 35 0
-18 -20 -35 0
3 19 32 0
-3 -19 -32 0
9 19 33 0
-9 -19 -33 0
15 19 34 0
-15 -19 -34 0
19 21 35 0
-19 -21 -35 0
4 20 32 0
-4 -20 -32 0
10 20 33 0
-10 -20 -33 0
16 20 34 0
-16 -20 -34 0
20 22 35 0
-20 -22 -35 0
5 21 32 0
-5 -21 -32 0
11 21 33 0
-11 -21 -33 0
17 21 34 0
-17 -21 -34 0
21 23 35 0
-21 -23 -35 0
6 22 32 0
-6 -22 -32 0
12 22 33 0
-12 -22 -33 0
18 22 34 0
-18 -22 -34 0
22 24 35 0
-22 -24 -35 0
1 23 31 0
-1 -23 -31 0
7 23 32 0
-7 -23 -32 0
13 23 33 0
-13 -23 -33 0
19 23 34 0
-19 -23 -34 0
23 25 35 0
-23 -25 -35 0
2 24 31 0
-2 -24 -31 0
8 24 32 0
-8 -24 -32 0
14 24 33 0
-14 -24 -33 0
20 24 34 0
-20 -24 -34 0
24 26 35 0
-24 -26 -35 0
3 25 31 0
-3 -25 -31 0
9 25 32 0
-9 -25 -32 0
15 25 33 0
-15 -25 -33 0
21 25 34 0
-21 -25 -34 0
25 27 35 0
-25 -27 -35 0
4 26 31 0
-4 -26 -31 0
10 26 32 0
-10 -26 -32 0
16 26 33 0
-16 -26 -33 0
22 26 34 0
-22 -26 -34 0
26 28 35 0
-26 -28 -35 0
5 27 31 0
-5 -27 -31 0
11 27 32 0
-11 -27 -32 0
17 27 33 0
-17 -27 -33 0
23 27 34 0
-23 -27 -34 0
27 29 35 0
-27 -29 -35 0
6 28 31 0
-6 -28 -31 0
12 28 32 0
-12 -28 -32 0
18 28 33 0
-18 -28 -33 0
24 28 34 0
-24 -28 -34 0
28 30 35 0
-28 -30 -35 0
1 29 30 0
-1 -29 -30 0
7 29 31 0
-7 -29 -31 0
13 29 32 0
-13 -29 -32 0
19 29 33 0
-19 -29 -33 0
25 29 34 0
-25 -29 -34 0
29 31 35 0
-29 -31 -35 0
2 30 0
-2 -30 0
8 30 31 0
-8 -30 -31 0
14 30 32 0
-14 -30 -32 0
20 30 33 0
-20 -30 -33 0
26 30 34 0
-26 -30 -34 0
30 32 35 0
-30 -32 -35 0
3 30 31 0
-3 -30 -31 0
9 31 0
-9 -31 0
15 31 32 0
-15 -31 -32 0
21 31 33 0
-21 -31 -33 0
27 31 34 0
-27 -31 -34 0
31 33 35 0
-31 -33 -35 0
4 30 32 0
-4 -30 -32 0
10 31 32 0
-10 -31 -32 0
16 32 0
-16 -32 0
22 32 33 0
-22 -32 -33 0
28 32 34 0
-28 -32 -34 0
32 34 35 0
-32 -34 -35 0
5 30 33 0
-5 -30 -33 0
11 31 33 0
-11 -31 -33 0
17 32 33 0
-17 -32 -33 0
23 33 0
-23 -33 0
29 33 34 0
-29 -33 -34 0
33 35 0
-33 -35 0
6 30 34 0
-6 -30 -34 0
12 31 34 0
-12 -31 -34 0
18 32 34 0
-18 -32 -34 0
24 33 34 0
-24 -33 -34 0
30 34 0
-30 -34 0
1 29 35 0
-1 -29 -35 0
7 30 35 0
-7 -30 -35 0
13 31 35 0
-13 -31 -35 0
19 32 35 0
-19 -32 -35 0
25 33 35 0
-25 -33 -35 0
31 34 35 0
-31 -34 -35 0
