certificates/rado_a6_c208_N35.drat
-35 0
33 0
-23 0
21 0
25 0
-11 0
-31 0
-15 0
-34 0
9 0
7 0
13 0
0
